data;
param n:=100;
param w:=1 185 2 -364 3 414 4 -444 5 -117 6 237 7 -27 8 287 9 242 10 57 11 -410 12 287 13 -400 14 -477 15 -76 16 464 17 -152 18 -45 19 -68 20 34 21 -284 22 161 23 269 24 249 25 291 26 354 27 329 28 -255 29 125 30 137 31 -354 32 -396 33 441 34 294 35 -383 36 -49 37 -215 38 60 39 27 40 -379 41 140 42 -498 43 148 44 -202 45 -467 46 81 47 2 48 -411 49 69 50 155 51 361 52 446 53 179 54 234 55 -389 56 -368 57 228 58 292 59 135 60 468 61 -384 62 -174 63 -319 64 -362 65 -497 66 84 67 -219 68 -496 69 -97 70 -165 71 408 72 365 73 211 74 -506 75 -184 76 -493 77 3 78 -37 79 382 80 -62 81 -32 82 306 83 298 84 191 85 -15 86 -1 87 294 88 293 89 -451 90 -450 91 75 92 194 93 93 94 -352 95 302 96 87 97 469 98 187 99 450 100 -48;
